p wcnf 1000 200 2
1 1 0
1 2 0
1 3 0
1 4 0
1 5 0
1 6 0
1 7 0
1 8 0
1 9 0
2 10 0
2 11 0
2 12 0
1 2 2 2 2 3 3 3 3 3 3 3 0
1 3 3 3 3 3 4 4 4 4 4 5 0
1 5 5 5 5 5 5 5 6 6 6 6 0
1 6 6 6 6 6 7 7 7 7 7 7 0
1 7 7 7 7 7 8 8 8 8 8 8 0
1 8 8 8 9 9 9 9 9 9 9 9 0
1 9 9 9 9 9 9 9 9 10 10 10 0
1 10 10 10 10 10 10 10 11 11 11 11 0
1 11 11 11 11 11 11 11 11 11 12 12 0
1 12 12 12 12 12 13 13 13 13 13 13 0
1 13 13 13 13 13 14 14 14 14 14 14 0
1 14 15 15 15 15 15 15 15 16 16 16 0
1 16 16 16 16 16 16 16 16 17 17 17 0
1 17 17 17 17 17 17 17 17 17 18 18 0
1 18 18 18 18 18 19 19 19 19 19 19 0
1 19 19 20 20 20 20 20 20 20 20 21 0
1 21 21 21 21 21 21 21 21 22 22 22 0
1 22 22 22 22 22 22 22 22 23 23 23 0
1 23 23 23 23 23 23 23 23 23 24 24 0
1 24 24 24 24 24 24 24 24 24 24 24 0
1 25 25 25 25 25 25 25 25 25 25 25 0
1 26 26 26 26 26 26 26 26 26 26 26 0
1 26 27 27 27 27 27 27 27 27 27 27 0
1 28 28 28 28 28 29 29 29 29 29 29 0
1 30 30 30 30 30 30 30 30 31 31 31 0
1 31 31 31 31 31 31 32 32 32 32 32 0
1 32 32 32 32 32 32 32 33 33 33 33 0
1 33 33 33 33 33 33 33 33 34 34 34 0
1 34 34 34 34 34 34 34 35 35 35 35 0
1 35 35 35 35 36 36 36 36 36 36 36 0
1 36 36 36 36 36 37 37 37 37 37 38 0
1 38 38 38 38 38 38 38 38 38 39 39 0
1 39 40 40 40 40 40 40 40 40 41 41 0
1 41 41 41 41 42 42 42 42 42 42 42 0
1 43 43 43 43 43 43 43 43 43 43 44 0
1 44 44 44 44 44 44 44 45 45 45 45 0
1 45 45 45 45 46 46 46 46 46 46 46 0
1 46 46 46 46 46 46 47 47 47 47 47 0
1 47 47 47 47 47 47 47 47 48 48 48 0
1 48 48 48 48 48 48 48 48 48 48 49 0
1 49 49 49 49 50 50 50 50 50 50 50 0
1 50 50 50 51 51 51 51 51 51 51 51 0
1 52 52 52 52 52 52 52 52 52 52 52 0
1 53 53 53 53 53 53 54 54 54 54 54 0
1 54 55 55 55 55 55 55 55 55 55 55 0
1 55 55 56 56 56 56 56 56 56 56 56 0
1 57 57 57 57 57 57 57 57 57 57 57 0
1 58 58 58 58 58 58 58 58 58 58 58 0
1 59 59 59 59 59 60 60 60 60 60 60 0
1 60 60 61 61 61 61 61 61 61 61 62 0
1 62 63 63 63 63 63 63 63 63 63 63 0
1 63 63 64 64 64 64 64 64 64 64 64 0
1 64 65 65 65 65 65 65 65 65 66 66 0
1 66 66 66 66 66 67 67 67 67 67 67 0
1 67 67 67 67 67 67 67 67 68 68 68 0
1 68 68 68 68 68 68 68 69 69 69 69 0
1 69 69 69 69 69 70 70 70 70 70 70 0
1 70 71 71 71 71 71 71 72 72 72 72 0
1 72 72 72 73 73 73 73 73 73 73 73 0
1 73 73 73 74 74 74 74 74 74 74 74 0
1 74 74 74 75 75 75 75 75 75 75 75 0
1 75 75 75 76 76 76 76 76 76 76 76 0
1 77 77 77 77 77 77 77 77 77 78 78 0
1 78 78 78 78 78 78 78 79 79 79 79 0
1 79 79 79 80 80 80 80 80 80 80 80 0
1 80 80 81 81 81 81 81 81 81 81 81 0
1 82 82 82 82 82 82 82 82 82 82 82 0
1 82 83 83 83 83 83 83 83 83 83 83 0
1 84 84 84 84 84 84 84 84 84 85 85 0
1 85 85 85 85 85 85 85 86 86 86 86 0
1 86 86 86 86 86 86 86 86 86 86 86 0
1 87 87 87 87 87 87 87 87 87 88 88 0
1 88 88 88 88 88 88 89 89 89 89 89 0
1 89 89 89 90 90 90 90 90 90 90 90 0
1 90 91 91 91 91 91 91 91 91 91 91 0
1 91 92 92 92 92 92 92 92 93 93 93 0
1 93 93 93 93 93 93 93 94 94 94 94 0
1 94 94 94 95 95 95 95 95 95 95 95 0
1 95 95 95 96 96 96 96 96 96 96 96 0
1 96 96 97 97 97 97 97 97 97 97 97 0
1 97 97 97 98 98 98 98 98 98 98 98 0
1 99 99 99 99 99 99 99 100 100 100 100 0
1 100 100 100 0
1  0
1 68 86 156 187 247 361 369 400 412 444 445 0
1 639 659 699 740 916 935 962 0
1  0
1 140 162 259 276 379 472 501 590 635 659 663 0
1 797 800 860 862 885 915 937 941 0
1  0
1 97 143 205 236 267 320 323 351 370 452 492 0
1 683 896 919 959 0
1  0
1 203 249 339 355 370 395 411 434 449 503 558 0
1 640 832 921 936 982 986 0
1  0
1 51 84 166 197 200 281 346 357 517 675 693 0
1 779 840 906 924 933 958 0
1  0
1 20 38 66 86 241 244 268 333 530 538 595 0
1 658 765 849 879 966 0
1  0
1 242 256 357 360 395 446 456 548 681 715 923 0
1 958 965 993 0
1  0
1 163 205 325 334 451 462 467 484 543 560 575 0
1 930 936 947 0
1  0
1 103 314 338 348 386 393 419 431 475 540 552 0
1 597 670 772 926 980 0
1  0
1 79 100 113 239 297 399 498 640 894 0
1  0
1 45 156 331 421 441 455 478 505 530 555 620 0
1 655 678 685 709 725 778 790 855 878 941 977 0
1  0
1 243 271 324 361 489 569 596 692 705 740 764 0
1 789 839 915 919 0
1  0
1 36 61 77 88 109 111 134 142 216 328 349 0
1 547 559 592 615 721 759 800 826 851 860 877 0
1  0
1  0
1 116 273 289 320 368 370 379 380 382 428 490 0
1 509 587 630 720 804 806 835 858 868 888 979 0
1  0
1 27 96 106 144 172 214 261 272 414 415 500 0
1 548 684 786 811 840 963 992 0
1  0
1 18 83 119 143 146 227 362 375 568 647 723 0
1 771 833 908 953 961 975 991 0
1  0
1 46 85 94 123 234 305 438 456 461 512 535 0
1 589 620 657 673 752 759 819 957 965 994 0
1  0
1 32 67 224 228 232 243 269 276 296 316 335 0
1 423 426 485 570 651 687 718 726 754 785 801 0
1  0
1 139 141 142 209 215 316 367 416 450 551 589 0
1 616 628 715 777 787 796 797 829 911 954 993 0
1  0
1 94 128 155 187 228 268 500 503 509 563 573 0
1 763 830 843 922 0
1  0
1 36 99 149 195 244 255 266 299 480 518 533 0
1 557 572 690 698 785 829 922 925 0
1  0
1 204 366 398 503 518 522 552 567 604 655 715 0
1 799 878 929 937 944 953 954 981 0
1  0
1 85 107 148 154 180 208 306 360 433 436 466 0
1 657 671 697 733 743 782 829 936 0
1  0
1 52 53 64 107 232 442 473 481 578 621 652 0
1 870 876 909 965 0
1  0
1 144 198 307 357 358 360 369 383 405 513 518 0
1 530 544 585 623 656 663 665 674 730 766 828 0
1 962 0
1  0
1 258 288 324 339 371 430 527 653 670 692 732 0
1  0
1  0
1 87 155 166 201 258 386 416 417 424 592 634 0
1 757 758 760 832 996 999 0
1  0
1 124 136 173 180 303 320 550 565 612 613 672 0
1 756 855 930 953 0
1  0
1 11 78 98 171 296 499 523 560 569 574 661 0
1 712 730 738 785 953 0
1  0
1 108 133 148 168 194 280 296 347 357 404 422 0
1 525 556 619 658 667 681 834 877 929 0
1  0
1 149 193 225 240 283 330 366 399 459 462 605 0
1 670 687 771 831 875 897 0
1  0
1 122 159 216 240 245 246 260 310 334 350 392 0
1 486 531 595 634 719 732 834 897 910 943 980 0
1  0
1 192 203 206 223 229 261 295 302 312 313 358 0
1 801 808 820 863 876 892 926 0
1  0
1 226 241 313 366 550 568 595 656 737 809 830 0
1 882 971 0
1  0
1 161 255 310 410 446 454 517 528 612 619 650 0
1 788 799 809 882 916 0
1  0
1 26 67 85 95 145 260 312 318 340 341 409 0
1 468 531 546 559 599 655 677 815 824 847 951 0
1  0
1  0
1 63 154 204 227 256 265 267 270 272 318 328 0
1 361 440 450 458 518 536 539 565 702 794 814 0
1 997 0
1  0
1 95 108 127 187 240 263 312 394 450 464 478 0
1 492 510 534 600 646 652 666 716 793 796 810 0
